INDET
WARNING: for repeatability, setting FPU to use double precision
============================[ Problem Statistics ]=============================
|                                                                             |
|  Number of variables:         14756                                         |
|  Number of clauses:          141683                                         |
|  Parse time:                   0.02 s                                       |
|  Simplification time:          0.03 s                                       |
|                                                                             |
============================[ Search Statistics ]==============================
| Conflicts |          ORIGINAL         |          LEARNT          | Progress |
|           |    Vars  Clauses Literals |    Limit  Clauses Lit/Cl |          |
===============================================================================
|       100 |   14756   141683   478920 |    51950      100     31 |  0.000 % |
|       250 |   14756   141683   478920 |    57145      250     23 |  0.000 % |
|       475 |   14756   141683   478920 |    62860      475     21 |  0.000 % |
|       812 |   14756   141683   478920 |    69146      812     19 |  0.000 % |
|      1318 |   14756   141683   478920 |    76060     1318     18 |  0.000 % |
|      2077 |   14756   141683   478920 |    83666     2077     18 |  0.000 % |
|      3216 |   14756   141683   478920 |    92033     3216     18 |  0.000 % |
|      4924 |   14756   141683   478920 |   101236     4924     17 |  0.000 % |
|      7486 |   14756   141683   478920 |   111360     7486     16 |  0.000 % |
|     11330 |   14756   141683   478920 |   122496    11330     16 |  0.000 % |
|     17096 |   14756   141683   478920 |   134746    17096     16 |  0.000 % |
|     25745 |   14756   141683   478920 |   148220    25745     15 |  0.000 % |
|     38719 |   14756   141683   478920 |   163042    38719     15 |  0.000 % |
|     58180 |   14756   141683   478920 |   179346    58180     16 |  0.000 % |
|     87372 |   14756   141683   478920 |   197281    87372     16 |  0.000 % |
|    131161 |   14756   141683   478920 |   217009   131161     16 |  0.000 % |
|    196845 |   14756   141683   478920 |   238710   196845     16 |  0.000 % |
|    295371 |   14756   141683   478920 |   262581    72576     16 |  0.000 % |
|    443160 |   14756   141683   478920 |   288840   220365     16 |  0.000 % |
|    664843 |   14756   141683   478920 |   317724   170110     16 |  0.000 % |
===============================================================================
restarts              : 2035
conflicts             : 923204         (12407 /sec)
decisions             : 1138023        (0.00 % random) (15294 /sec)
propagations          : 439351863      (5904481 /sec)
conflict literals     : 15203361       (46.18 % deleted)
Memory used           : 85.66 MB
CPU time              : 74.4099 s

INDETERMINATE
===================
